p td 80 80
0 51
0 24
1 10
1 12
1 15
2 36
2 21
2 8
3 6
3 65
4 32
4 5
4 72
5 35
6 50
6 13
6 62
6 75
7 79
7 63
7 10
7 14
7 53
8 30
8 48
9 16
10 55
10 54
10 56
10 28
10 34
11 66
12 20
12 33
13 70
13 50
14 55
14 62
15 17
15 35
16 25
16 20
16 68
16 39
17 63
19 66
21 49
21 39
21 28
23 52
24 72
26 74
27 65
29 45
29 42
30 61
31 61
31 55
32 33
32 73
33 39
35 76
36 57
36 68
36 76
37 43
38 65
39 73
40 46
41 56
41 43
41 57
48 61
49 54
50 61
52 55
53 57
54 63
55 63
56 77
